10J3M/DAT/10J3MNNR-18.dat
10 3
27.1183 10.0905
20.3741 38.1422
20.4274 32.398
17.3078 32.0998
23.4463 4.9967
27.5609 45.7863
21.4575 4.6194
25.1294 40.9181
22.3327 16.2401
21.0236 12.7325
238.0236