10J3M/SOL/10J3MNNR-18.sol
solution status: optimal solution found
objective value:                     75.3926666666666
x#1#2                              0.0597099867371238 	(obj:0)
x#1#3                               0.940290013262876 	(obj:0)
x#2#1                                               1 	(obj:0)
x#3#1                                               1 	(obj:0)
x#4#1                                               1 	(obj:0)
x#5#2                                               1 	(obj:0)
x#6#3                                               1 	(obj:0)
x#7#1                               0.805469726979688 	(obj:0)
x#7#2                               0.194530273020312 	(obj:0)
x#8#2                                               1 	(obj:0)
x#9#3                                               1 	(obj:0)
x#10#2                                              1 	(obj:0)
z                                    75.3926666666666 	(obj:1)
